NAME CFLP
ROWS
 N  OBJ
 E  demand_1
 E  demand_2
 E  demand_3
 E  demand_4
 E  demand_5
 E  demand_6
 E  demand_7
 E  demand_8
 E  demand_9
 E  demand_10
 E  demand_11
 E  demand_12
 E  demand_13
 E  demand_14
 E  demand_15
 E  demand_16
 E  demand_17
 E  demand_18
 E  demand_19
 E  demand_20
 E  demand_21
 E  demand_22
 E  demand_23
 E  demand_24
 E  demand_25
 E  demand_26
 E  demand_27
 E  demand_28
 E  demand_29
 E  demand_30
 E  demand_31
 E  demand_32
 E  demand_33
 E  demand_34
 E  demand_35
 L  c_disjunction_1_diajunct_1
 L  c_disjunction_1_disjunct_2
 E  R37     
 L  c_disjunction_2_diajunct_1
 L  c_disjunction_2_disjunct_2
 E  R40     
 L  c_disjunction_3_diajunct_1
 L  c_disjunction_3_disjunct_2
 E  R43     
 L  c_disjunction_4_diajunct_1
 L  c_disjunction_4_disjunct_2
 E  R46     
 L  c_disjunction_5_diajunct_1
 L  c_disjunction_5_disjunct_2
 E  R49     
 L  c_disjunction_6_diajunct_1
 L  c_disjunction_6_disjunct_2
 E  R52     
 L  c_disjunction_7_diajunct_1
 L  c_disjunction_7_disjunct_2
 E  R55     
 L  c_disjunction_8_diajunct_1
 L  c_disjunction_8_disjunct_2
 E  R58     
 L  c_disjunction_9_diajunct_1
 L  c_disjunction_9_disjunct_2
 E  R61     
 L  c_disjunction_10_diajunct_1
 L  c_disjunction_10_disjunct_2
 E  R64     
 L  c_disjunction_11_diajunct_1
 L  c_disjunction_11_disjunct_2
 E  R67     
 L  c_disjunction_12_diajunct_1
 L  c_disjunction_12_disjunct_2
 E  R70     
 L  c_disjunction_13_diajunct_1
 L  c_disjunction_13_disjunct_2
 E  R73     
 L  c_disjunction_14_diajunct_1
 L  c_disjunction_14_disjunct_2
 E  R76     
 L  c_disjunction_15_diajunct_1
 L  c_disjunction_15_disjunct_2
 E  R79     
 L  c_disjunction_16_diajunct_1
 L  c_disjunction_16_disjunct_2
 E  R82     
 L  c_disjunction_17_diajunct_1
 L  c_disjunction_17_disjunct_2
 E  R85     
 L  c_disjunction_18_diajunct_1
 L  c_disjunction_18_disjunct_2
 E  R88     
 L  c_disjunction_19_diajunct_1
 L  c_disjunction_19_disjunct_2
 E  R91     
 L  c_disjunction_20_diajunct_1
 L  c_disjunction_20_disjunct_2
 E  R94     
 L  c_disjunction_21_diajunct_1
 L  c_disjunction_21_disjunct_2
 E  R97     
 L  c_disjunction_22_diajunct_1
 L  c_disjunction_22_disjunct_2
 E  R100    
 L  c_disjunction_23_diajunct_1
 L  c_disjunction_23_disjunct_2
 E  R103    
 L  c_disjunction_24_diajunct_1
 L  c_disjunction_24_disjunct_2
 E  R106    
 L  c_disjunction_25_diajunct_1
 L  c_disjunction_25_disjunct_2
 E  R109    
 L  c_disjunction_26_diajunct_1
 L  c_disjunction_26_disjunct_2
 E  R112    
 L  c_disjunction_27_diajunct_1
 L  c_disjunction_27_disjunct_2
 E  R115    
 L  c_disjunction_28_diajunct_1
 L  c_disjunction_28_disjunct_2
 E  R118    
 L  c_disjunction_29_diajunct_1
 L  c_disjunction_29_disjunct_2
 E  R121    
 L  c_disjunction_30_diajunct_1
 L  c_disjunction_30_disjunct_2
 E  R124    
 L  c_disjunction_31_diajunct_1
 L  c_disjunction_31_disjunct_2
 E  R127    
 L  c_disjunction_32_diajunct_1
 L  c_disjunction_32_disjunct_2
 E  R130    
 L  c_disjunction_33_diajunct_1
 L  c_disjunction_33_disjunct_2
 E  R133    
 L  c_disjunction_34_diajunct_1
 L  c_disjunction_34_disjunct_2
 E  R136    
 L  c_disjunction_35_diajunct_1
 L  c_disjunction_35_disjunct_2
 E  R139    
COLUMNS
    MARKER    'MARKER'                 'INTORG'
    ind_disjunction_1_disjunct_1  OBJ       1179
    ind_disjunction_1_disjunct_1  c_disjunction_1_diajunct_1  -119
    ind_disjunction_1_disjunct_1  R37       1
    ind_disjunction_2_disjunct_1  OBJ       1179
    ind_disjunction_2_disjunct_1  c_disjunction_2_diajunct_1  -119
    ind_disjunction_2_disjunct_1  R40       1
    ind_disjunction_3_disjunct_1  OBJ       1179
    ind_disjunction_3_disjunct_1  c_disjunction_3_diajunct_1  -119
    ind_disjunction_3_disjunct_1  R43       1
    ind_disjunction_4_disjunct_1  OBJ       1179
    ind_disjunction_4_disjunct_1  c_disjunction_4_diajunct_1  -119
    ind_disjunction_4_disjunct_1  R46       1
    ind_disjunction_5_disjunct_1  OBJ       1179
    ind_disjunction_5_disjunct_1  c_disjunction_5_diajunct_1  -119
    ind_disjunction_5_disjunct_1  R49       1
    ind_disjunction_6_disjunct_1  OBJ       1179
    ind_disjunction_6_disjunct_1  c_disjunction_6_diajunct_1  -119
    ind_disjunction_6_disjunct_1  R52       1
    ind_disjunction_7_disjunct_1  OBJ       1179
    ind_disjunction_7_disjunct_1  c_disjunction_7_diajunct_1  -119
    ind_disjunction_7_disjunct_1  R55       1
    ind_disjunction_8_disjunct_1  OBJ       1179
    ind_disjunction_8_disjunct_1  c_disjunction_8_diajunct_1  -119
    ind_disjunction_8_disjunct_1  R58       1
    ind_disjunction_9_disjunct_1  OBJ       1179
    ind_disjunction_9_disjunct_1  c_disjunction_9_diajunct_1  -119
    ind_disjunction_9_disjunct_1  R61       1
    ind_disjunction_10_disjunct_1  OBJ       1179
    ind_disjunction_10_disjunct_1  c_disjunction_10_diajunct_1  -119
    ind_disjunction_10_disjunct_1  R64       1
    ind_disjunction_11_disjunct_1  OBJ       1179
    ind_disjunction_11_disjunct_1  c_disjunction_11_diajunct_1  -119
    ind_disjunction_11_disjunct_1  R67       1
    ind_disjunction_12_disjunct_1  OBJ       1179
    ind_disjunction_12_disjunct_1  c_disjunction_12_diajunct_1  -119
    ind_disjunction_12_disjunct_1  R70       1
    ind_disjunction_13_disjunct_1  OBJ       1179
    ind_disjunction_13_disjunct_1  c_disjunction_13_diajunct_1  -119
    ind_disjunction_13_disjunct_1  R73       1
    ind_disjunction_14_disjunct_1  OBJ       1179
    ind_disjunction_14_disjunct_1  c_disjunction_14_diajunct_1  -119
    ind_disjunction_14_disjunct_1  R76       1
    ind_disjunction_15_disjunct_1  OBJ       1179
    ind_disjunction_15_disjunct_1  c_disjunction_15_diajunct_1  -119
    ind_disjunction_15_disjunct_1  R79       1
    ind_disjunction_16_disjunct_1  OBJ       1179
    ind_disjunction_16_disjunct_1  c_disjunction_16_diajunct_1  -119
    ind_disjunction_16_disjunct_1  R82       1
    ind_disjunction_17_disjunct_1  OBJ       1179
    ind_disjunction_17_disjunct_1  c_disjunction_17_diajunct_1  -119
    ind_disjunction_17_disjunct_1  R85       1
    ind_disjunction_18_disjunct_1  OBJ       1179
    ind_disjunction_18_disjunct_1  c_disjunction_18_diajunct_1  -119
    ind_disjunction_18_disjunct_1  R88       1
    ind_disjunction_19_disjunct_1  OBJ       1179
    ind_disjunction_19_disjunct_1  c_disjunction_19_diajunct_1  -119
    ind_disjunction_19_disjunct_1  R91       1
    ind_disjunction_20_disjunct_1  OBJ       1179
    ind_disjunction_20_disjunct_1  c_disjunction_20_diajunct_1  -119
    ind_disjunction_20_disjunct_1  R94       1
    ind_disjunction_21_disjunct_1  OBJ       1179
    ind_disjunction_21_disjunct_1  c_disjunction_21_diajunct_1  -119
    ind_disjunction_21_disjunct_1  R97       1
    ind_disjunction_22_disjunct_1  OBJ       1179
    ind_disjunction_22_disjunct_1  c_disjunction_22_diajunct_1  -119
    ind_disjunction_22_disjunct_1  R100      1
    ind_disjunction_23_disjunct_1  OBJ       1179
    ind_disjunction_23_disjunct_1  c_disjunction_23_diajunct_1  -119
    ind_disjunction_23_disjunct_1  R103      1
    ind_disjunction_24_disjunct_1  OBJ       1179
    ind_disjunction_24_disjunct_1  c_disjunction_24_diajunct_1  -119
    ind_disjunction_24_disjunct_1  R106      1
    ind_disjunction_25_disjunct_1  OBJ       1179
    ind_disjunction_25_disjunct_1  c_disjunction_25_diajunct_1  -119
    ind_disjunction_25_disjunct_1  R109      1
    ind_disjunction_26_disjunct_1  OBJ       1179
    ind_disjunction_26_disjunct_1  c_disjunction_26_diajunct_1  -119
    ind_disjunction_26_disjunct_1  R112      1
    ind_disjunction_27_disjunct_1  OBJ       1179
    ind_disjunction_27_disjunct_1  c_disjunction_27_diajunct_1  -119
    ind_disjunction_27_disjunct_1  R115      1
    ind_disjunction_28_disjunct_1  OBJ       1179
    ind_disjunction_28_disjunct_1  c_disjunction_28_diajunct_1  -119
    ind_disjunction_28_disjunct_1  R118      1
    ind_disjunction_29_disjunct_1  OBJ       1179
    ind_disjunction_29_disjunct_1  c_disjunction_29_diajunct_1  -119
    ind_disjunction_29_disjunct_1  R121      1
    ind_disjunction_30_disjunct_1  OBJ       1179
    ind_disjunction_30_disjunct_1  c_disjunction_30_diajunct_1  -119
    ind_disjunction_30_disjunct_1  R124      1
    ind_disjunction_31_disjunct_1  OBJ       1179
    ind_disjunction_31_disjunct_1  c_disjunction_31_diajunct_1  -119
    ind_disjunction_31_disjunct_1  R127      1
    ind_disjunction_32_disjunct_1  OBJ       1179
    ind_disjunction_32_disjunct_1  c_disjunction_32_diajunct_1  -119
    ind_disjunction_32_disjunct_1  R130      1
    ind_disjunction_33_disjunct_1  OBJ       1179
    ind_disjunction_33_disjunct_1  c_disjunction_33_diajunct_1  -119
    ind_disjunction_33_disjunct_1  R133      1
    ind_disjunction_34_disjunct_1  OBJ       1179
    ind_disjunction_34_disjunct_1  c_disjunction_34_diajunct_1  -119
    ind_disjunction_34_disjunct_1  R136      1
    ind_disjunction_35_disjunct_1  OBJ       1179
    ind_disjunction_35_disjunct_1  c_disjunction_35_diajunct_1  -119
    ind_disjunction_35_disjunct_1  R139      1
    ind_disjunction_1_disjunct_2  c_disjunction_1_disjunct_2  3
    ind_disjunction_1_disjunct_2  R37       1
    ind_disjunction_2_disjunct_2  c_disjunction_2_disjunct_2  3
    ind_disjunction_2_disjunct_2  R40       1
    ind_disjunction_3_disjunct_2  c_disjunction_3_disjunct_2  3
    ind_disjunction_3_disjunct_2  R43       1
    ind_disjunction_4_disjunct_2  c_disjunction_4_disjunct_2  3
    ind_disjunction_4_disjunct_2  R46       1
    ind_disjunction_5_disjunct_2  c_disjunction_5_disjunct_2  3
    ind_disjunction_5_disjunct_2  R49       1
    ind_disjunction_6_disjunct_2  c_disjunction_6_disjunct_2  3
    ind_disjunction_6_disjunct_2  R52       1
    ind_disjunction_7_disjunct_2  c_disjunction_7_disjunct_2  3
    ind_disjunction_7_disjunct_2  R55       1
    ind_disjunction_8_disjunct_2  c_disjunction_8_disjunct_2  4
    ind_disjunction_8_disjunct_2  R58       1
    ind_disjunction_9_disjunct_2  c_disjunction_9_disjunct_2  2
    ind_disjunction_9_disjunct_2  R61       1
    ind_disjunction_10_disjunct_2  c_disjunction_10_disjunct_2  2
    ind_disjunction_10_disjunct_2  R64       1
    ind_disjunction_11_disjunct_2  c_disjunction_11_disjunct_2  3
    ind_disjunction_11_disjunct_2  R67       1
    ind_disjunction_12_disjunct_2  c_disjunction_12_disjunct_2  3
    ind_disjunction_12_disjunct_2  R70       1
    ind_disjunction_13_disjunct_2  c_disjunction_13_disjunct_2  1
    ind_disjunction_13_disjunct_2  R73       1
    ind_disjunction_14_disjunct_2  c_disjunction_14_disjunct_2  2
    ind_disjunction_14_disjunct_2  R76       1
    ind_disjunction_15_disjunct_2  c_disjunction_15_disjunct_2  5
    ind_disjunction_15_disjunct_2  R79       1
    ind_disjunction_16_disjunct_2  c_disjunction_16_disjunct_2  4
    ind_disjunction_16_disjunct_2  R82       1
    ind_disjunction_17_disjunct_2  c_disjunction_17_disjunct_2  2
    ind_disjunction_17_disjunct_2  R85       1
    ind_disjunction_18_disjunct_2  c_disjunction_18_disjunct_2  2
    ind_disjunction_18_disjunct_2  R88       1
    ind_disjunction_19_disjunct_2  c_disjunction_19_disjunct_2  3
    ind_disjunction_19_disjunct_2  R91       1
    ind_disjunction_20_disjunct_2  c_disjunction_20_disjunct_2  2
    ind_disjunction_20_disjunct_2  R94       1
    ind_disjunction_21_disjunct_2  c_disjunction_21_disjunct_2  4
    ind_disjunction_21_disjunct_2  R97       1
    ind_disjunction_22_disjunct_2  c_disjunction_22_disjunct_2  4
    ind_disjunction_22_disjunct_2  R100      1
    ind_disjunction_23_disjunct_2  c_disjunction_23_disjunct_2  3
    ind_disjunction_23_disjunct_2  R103      1
    ind_disjunction_24_disjunct_2  c_disjunction_24_disjunct_2  4
    ind_disjunction_24_disjunct_2  R106      1
    ind_disjunction_25_disjunct_2  c_disjunction_25_disjunct_2  2
    ind_disjunction_25_disjunct_2  R109      1
    ind_disjunction_26_disjunct_2  c_disjunction_26_disjunct_2  3
    ind_disjunction_26_disjunct_2  R112      1
    ind_disjunction_27_disjunct_2  c_disjunction_27_disjunct_2  3
    ind_disjunction_27_disjunct_2  R115      1
    ind_disjunction_28_disjunct_2  c_disjunction_28_disjunct_2  3
    ind_disjunction_28_disjunct_2  R118      1
    ind_disjunction_29_disjunct_2  c_disjunction_29_disjunct_2  3
    ind_disjunction_29_disjunct_2  R121      1
    ind_disjunction_30_disjunct_2  c_disjunction_30_disjunct_2  2
    ind_disjunction_30_disjunct_2  R124      1
    ind_disjunction_31_disjunct_2  c_disjunction_31_disjunct_2  3
    ind_disjunction_31_disjunct_2  R127      1
    ind_disjunction_32_disjunct_2  c_disjunction_32_disjunct_2  5
    ind_disjunction_32_disjunct_2  R130      1
    ind_disjunction_33_disjunct_2  c_disjunction_33_disjunct_2  4
    ind_disjunction_33_disjunct_2  R133      1
    ind_disjunction_34_disjunct_2  c_disjunction_34_disjunct_2  3
    ind_disjunction_34_disjunct_2  R136      1
    ind_disjunction_35_disjunct_2  c_disjunction_35_disjunct_2  3
    ind_disjunction_35_disjunct_2  R139      1
    x[1,1]    demand_1  1
    x[1,1]    c_disjunction_1_diajunct_1  7
    x[1,1]    c_disjunction_1_disjunct_2  1
    x[17,1]   OBJ       1.7
    x[17,1]   demand_1  1
    x[17,1]   c_disjunction_17_diajunct_1  7
    x[17,1]   c_disjunction_17_disjunct_2  1
    x[22,1]   OBJ       11.7
    x[22,1]   demand_1  1
    x[22,1]   c_disjunction_22_diajunct_1  7
    x[22,1]   c_disjunction_22_disjunct_2  1
    x[2,2]    demand_2  1
    x[2,2]    c_disjunction_2_diajunct_1  11
    x[2,2]    c_disjunction_2_disjunct_2  1
    x[23,2]   OBJ       6.7
    x[23,2]   demand_2  1
    x[23,2]   c_disjunction_23_diajunct_1  11
    x[23,2]   c_disjunction_23_disjunct_2  1
    x[29,2]   OBJ       18.2
    x[29,2]   demand_2  1
    x[29,2]   c_disjunction_29_diajunct_1  11
    x[29,2]   c_disjunction_29_disjunct_2  1
    x[3,3]    demand_3  1
    x[3,3]    c_disjunction_3_diajunct_1  15
    x[3,3]    c_disjunction_3_disjunct_2  1
    x[24,3]   OBJ       14.4
    x[24,3]   demand_3  1
    x[24,3]   c_disjunction_24_diajunct_1  15
    x[24,3]   c_disjunction_24_disjunct_2  1
    x[6,3]    OBJ       14.7
    x[6,3]    demand_3  1
    x[6,3]    c_disjunction_6_diajunct_1  15
    x[6,3]    c_disjunction_6_disjunct_2  1
    x[4,4]    demand_4  1
    x[4,4]    c_disjunction_4_diajunct_1  10
    x[4,4]    c_disjunction_4_disjunct_2  1
    x[5,4]    OBJ       7.9
    x[5,4]    demand_4  1
    x[5,4]    c_disjunction_5_diajunct_1  10
    x[5,4]    c_disjunction_5_disjunct_2  1
    x[27,4]   OBJ       13.2
    x[27,4]   demand_4  1
    x[27,4]   c_disjunction_27_diajunct_1  10
    x[27,4]   c_disjunction_27_disjunct_2  1
    x[5,5]    demand_5  1
    x[5,5]    c_disjunction_5_diajunct_1  22
    x[5,5]    c_disjunction_5_disjunct_2  1
    x[4,5]    OBJ       17.3
    x[4,5]    demand_5  1
    x[4,5]    c_disjunction_4_diajunct_1  22
    x[4,5]    c_disjunction_4_disjunct_2  1
    x[1,5]    OBJ       38.3
    x[1,5]    demand_5  1
    x[1,5]    c_disjunction_1_diajunct_1  22
    x[1,5]    c_disjunction_1_disjunct_2  1
    x[6,6]    demand_6  1
    x[6,6]    c_disjunction_6_diajunct_1  15
    x[6,6]    c_disjunction_6_disjunct_2  1
    x[3,6]    OBJ       14.7
    x[3,6]    demand_6  1
    x[3,6]    c_disjunction_3_diajunct_1  15
    x[3,6]    c_disjunction_3_disjunct_2  1
    x[15,6]   OBJ       21
    x[15,6]   demand_6  1
    x[15,6]   c_disjunction_15_diajunct_1  15
    x[15,6]   c_disjunction_15_disjunct_2  1
    x[7,7]    demand_7  1
    x[7,7]    c_disjunction_7_diajunct_1  31
    x[7,7]    c_disjunction_7_disjunct_2  1
    x[26,7]   OBJ       22
    x[26,7]   demand_7  1
    x[26,7]   c_disjunction_26_diajunct_1  31
    x[26,7]   c_disjunction_26_disjunct_2  1
    x[15,7]   OBJ       27.7
    x[15,7]   demand_7  1
    x[15,7]   c_disjunction_15_diajunct_1  31
    x[15,7]   c_disjunction_15_disjunct_2  1
    x[8,8]    demand_8  1
    x[8,8]    c_disjunction_8_diajunct_1  34
    x[8,8]    c_disjunction_8_disjunct_2  1
    x[24,8]   OBJ       30.3
    x[24,8]   demand_8  1
    x[24,8]   c_disjunction_24_diajunct_1  34
    x[24,8]   c_disjunction_24_disjunct_2  1
    x[21,8]   OBJ       36.2
    x[21,8]   demand_8  1
    x[21,8]   c_disjunction_21_diajunct_1  34
    x[21,8]   c_disjunction_21_disjunct_2  1
    x[9,9]    demand_9  1
    x[9,9]    c_disjunction_9_diajunct_1  30
    x[9,9]    c_disjunction_9_disjunct_2  1
    x[20,9]   OBJ       24
    x[20,9]   demand_9  1
    x[20,9]   c_disjunction_20_diajunct_1  30
    x[20,9]   c_disjunction_20_disjunct_2  1
    x[14,9]   OBJ       85.4
    x[14,9]   demand_9  1
    x[14,9]   c_disjunction_14_diajunct_1  30
    x[14,9]   c_disjunction_14_disjunct_2  1
    x[10,10]  demand_10  1
    x[10,10]  c_disjunction_10_diajunct_1  18
    x[10,10]  c_disjunction_10_disjunct_2  1
    x[11,10]  OBJ       18.2
    x[11,10]  demand_10  1
    x[11,10]  c_disjunction_11_diajunct_1  18
    x[11,10]  c_disjunction_11_disjunct_2  1
    x[6,10]   OBJ       40
    x[6,10]   demand_10  1
    x[6,10]   c_disjunction_6_diajunct_1  18
    x[6,10]   c_disjunction_6_disjunct_2  1
    x[11,11]  demand_11  1
    x[11,11]  c_disjunction_11_diajunct_1  35
    x[11,11]  c_disjunction_11_disjunct_2  1
    x[10,11]  OBJ       35.3
    x[10,11]  demand_11  1
    x[10,11]  c_disjunction_10_diajunct_1  35
    x[10,11]  c_disjunction_10_disjunct_2  1
    x[22,11]  OBJ       47.6
    x[22,11]  demand_11  1
    x[22,11]  c_disjunction_22_diajunct_1  35
    x[22,11]  c_disjunction_22_disjunct_2  1
    x[12,12]  demand_12  1
    x[12,12]  c_disjunction_12_diajunct_1  24
    x[12,12]  c_disjunction_12_disjunct_2  1
    x[28,12]  OBJ       9.4
    x[28,12]  demand_12  1
    x[28,12]  c_disjunction_28_diajunct_1  24
    x[28,12]  c_disjunction_28_disjunct_2  1
    x[35,12]  OBJ       23
    x[35,12]  demand_12  1
    x[35,12]  c_disjunction_35_diajunct_1  24
    x[35,12]  c_disjunction_35_disjunct_2  1
    x[13,13]  demand_13  1
    x[13,13]  c_disjunction_13_diajunct_1  14
    x[13,13]  c_disjunction_13_disjunct_2  1
    x[15,13]  OBJ       20.4
    x[15,13]  demand_13  1
    x[15,13]  c_disjunction_15_diajunct_1  14
    x[15,13]  c_disjunction_15_disjunct_2  1
    x[31,13]  OBJ       21.3
    x[31,13]  demand_13  1
    x[31,13]  c_disjunction_31_diajunct_1  14
    x[31,13]  c_disjunction_31_disjunct_2  1
    x[14,14]  demand_14  1
    x[14,14]  c_disjunction_14_diajunct_1  18
    x[14,14]  c_disjunction_14_disjunct_2  1
    x[24,14]  OBJ       26.4
    x[24,14]  demand_14  1
    x[24,14]  c_disjunction_24_diajunct_1  18
    x[24,14]  c_disjunction_24_disjunct_2  1
    x[8,14]   OBJ       32
    x[8,14]   demand_14  1
    x[8,14]   c_disjunction_8_diajunct_1  18
    x[8,14]   c_disjunction_8_disjunct_2  1
    x[15,15]  demand_15  1
    x[15,15]  c_disjunction_15_diajunct_1  27
    x[15,15]  c_disjunction_15_disjunct_2  1
    x[26,15]  OBJ       10.4
    x[26,15]  demand_15  1
    x[26,15]  c_disjunction_26_diajunct_1  27
    x[26,15]  c_disjunction_26_disjunct_2  1
    x[7,15]   OBJ       24.1
    x[7,15]   demand_15  1
    x[7,15]   c_disjunction_7_diajunct_1  27
    x[7,15]   c_disjunction_7_disjunct_2  1
    x[16,16]  demand_16  1
    x[16,16]  c_disjunction_16_diajunct_1  33
    x[16,16]  c_disjunction_16_disjunct_2  1
    x[33,16]  OBJ       28.1
    x[33,16]  demand_16  1
    x[33,16]  c_disjunction_33_diajunct_1  33
    x[33,16]  c_disjunction_33_disjunct_2  1
    x[25,16]  OBJ       30
    x[25,16]  demand_16  1
    x[25,16]  c_disjunction_25_diajunct_1  33
    x[25,16]  c_disjunction_25_disjunct_2  1
    x[17,17]  demand_17  1
    x[17,17]  c_disjunction_17_diajunct_1  10
    x[17,17]  c_disjunction_17_disjunct_2  1
    x[1,17]   OBJ       2.4
    x[1,17]   demand_17  1
    x[1,17]   c_disjunction_1_diajunct_1  10
    x[1,17]   c_disjunction_1_disjunct_2  1
    x[5,17]   OBJ       17.7
    x[5,17]   demand_17  1
    x[5,17]   c_disjunction_5_diajunct_1  10
    x[5,17]   c_disjunction_5_disjunct_2  1
    x[18,18]  demand_18  1
    x[18,18]  c_disjunction_18_diajunct_1  19
    x[18,18]  c_disjunction_18_disjunct_2  1
    x[34,18]  OBJ       6.1
    x[34,18]  demand_18  1
    x[34,18]  c_disjunction_34_diajunct_1  19
    x[34,18]  c_disjunction_34_disjunct_2  1
    x[21,18]  OBJ       21.3
    x[21,18]  demand_18  1
    x[21,18]  c_disjunction_21_diajunct_1  19
    x[21,18]  c_disjunction_21_disjunct_2  1
    x[19,19]  demand_19  1
    x[19,19]  c_disjunction_19_diajunct_1  24
    x[19,19]  c_disjunction_19_disjunct_2  1
    x[30,19]  OBJ       15.7
    x[30,19]  demand_19  1
    x[30,19]  c_disjunction_30_diajunct_1  24
    x[30,19]  c_disjunction_30_disjunct_2  1
    x[32,19]  OBJ       43.5
    x[32,19]  demand_19  1
    x[32,19]  c_disjunction_32_diajunct_1  24
    x[32,19]  c_disjunction_32_disjunct_2  1
    x[20,20]  demand_20  1
    x[20,20]  c_disjunction_20_diajunct_1  34
    x[20,20]  c_disjunction_20_disjunct_2  1
    x[9,20]   OBJ       27.2
    x[9,20]   demand_20  1
    x[9,20]   c_disjunction_9_diajunct_1  34
    x[9,20]   c_disjunction_9_disjunct_2  1
    x[19,20]  OBJ       94.3
    x[19,20]  demand_20  1
    x[19,20]  c_disjunction_19_diajunct_1  34
    x[19,20]  c_disjunction_19_disjunct_2  1
    x[21,21]  demand_21  1
    x[21,21]  c_disjunction_21_diajunct_1  13
    x[21,21]  c_disjunction_21_disjunct_2  1
    x[34,21]  OBJ       13.4
    x[34,21]  demand_21  1
    x[34,21]  c_disjunction_34_diajunct_1  13
    x[34,21]  c_disjunction_34_disjunct_2  1
    x[8,21]   OBJ       13.8
    x[8,21]   demand_21  1
    x[8,21]   c_disjunction_8_diajunct_1  13
    x[8,21]   c_disjunction_8_disjunct_2  1
    x[22,22]  demand_22  1
    x[22,22]  c_disjunction_22_diajunct_1  31
    x[22,22]  c_disjunction_22_disjunct_2  1
    x[32,22]  OBJ       36.7
    x[32,22]  demand_22  1
    x[32,22]  c_disjunction_32_diajunct_1  31
    x[32,22]  c_disjunction_32_disjunct_2  1
    x[11,22]  OBJ       42.2
    x[11,22]  demand_22  1
    x[11,22]  c_disjunction_11_diajunct_1  31
    x[11,22]  c_disjunction_11_disjunct_2  1
    x[23,23]  demand_23  1
    x[23,23]  c_disjunction_23_diajunct_1  22
    x[23,23]  c_disjunction_23_disjunct_2  1
    x[2,23]   OBJ       13.5
    x[2,23]   demand_23  1
    x[2,23]   c_disjunction_2_diajunct_1  22
    x[2,23]   c_disjunction_2_disjunct_2  1
    x[29,23]  OBJ       29.8
    x[29,23]  demand_23  1
    x[29,23]  c_disjunction_29_diajunct_1  22
    x[29,23]  c_disjunction_29_disjunct_2  1
    x[24,24]  demand_24  1
    x[24,24]  c_disjunction_24_diajunct_1  31
    x[24,24]  c_disjunction_24_disjunct_2  1
    x[8,24]   OBJ       27.7
    x[8,24]   demand_24  1
    x[8,24]   c_disjunction_8_diajunct_1  31
    x[8,24]   c_disjunction_8_disjunct_2  1
    x[3,24]   OBJ       29.9
    x[3,24]   demand_24  1
    x[3,24]   c_disjunction_3_diajunct_1  31
    x[3,24]   c_disjunction_3_disjunct_2  1
    x[25,25]  demand_25  1
    x[25,25]  c_disjunction_25_diajunct_1  15
    x[25,25]  c_disjunction_25_disjunct_2  1
    x[16,25]  OBJ       13.6
    x[16,25]  demand_25  1
    x[16,25]  c_disjunction_16_diajunct_1  15
    x[16,25]  c_disjunction_16_disjunct_2  1
    x[33,25]  OBJ       19.2
    x[33,25]  demand_25  1
    x[33,25]  c_disjunction_33_diajunct_1  15
    x[33,25]  c_disjunction_33_disjunct_2  1
    x[26,26]  demand_26  1
    x[26,26]  c_disjunction_26_diajunct_1  26
    x[26,26]  c_disjunction_26_disjunct_2  1
    x[15,26]  OBJ       10
    x[15,26]  demand_26  1
    x[15,26]  c_disjunction_15_diajunct_1  26
    x[15,26]  c_disjunction_15_disjunct_2  1
    x[7,26]   OBJ       18.5
    x[7,26]   demand_26  1
    x[7,26]   c_disjunction_7_diajunct_1  26
    x[7,26]   c_disjunction_7_disjunct_2  1
    x[27,27]  demand_27  1
    x[27,27]  c_disjunction_27_diajunct_1  5
    x[27,27]  c_disjunction_27_disjunct_2  1
    x[32,27]  OBJ       4.6
    x[32,27]  demand_27  1
    x[32,27]  c_disjunction_32_diajunct_1  5
    x[32,27]  c_disjunction_32_disjunct_2  1
    x[4,27]   OBJ       6.6
    x[4,27]   demand_27  1
    x[4,27]   c_disjunction_4_diajunct_1  5
    x[4,27]   c_disjunction_4_disjunct_2  1
    x[28,28]  demand_28  1
    x[28,28]  c_disjunction_28_diajunct_1  19
    x[28,28]  c_disjunction_28_disjunct_2  1
    x[12,28]  OBJ       7.4
    x[12,28]  demand_28  1
    x[12,28]  c_disjunction_12_diajunct_1  19
    x[12,28]  c_disjunction_12_disjunct_2  1
    x[35,28]  OBJ       11.2
    x[35,28]  demand_28  1
    x[35,28]  c_disjunction_35_diajunct_1  19
    x[35,28]  c_disjunction_35_disjunct_2  1
    x[29,29]  demand_29  1
    x[29,29]  c_disjunction_29_diajunct_1  26
    x[29,29]  c_disjunction_29_disjunct_2  1
    x[23,29]  OBJ       35.2
    x[23,29]  demand_29  1
    x[23,29]  c_disjunction_23_diajunct_1  26
    x[23,29]  c_disjunction_23_disjunct_2  1
    x[2,29]   OBJ       43
    x[2,29]   demand_29  1
    x[2,29]   c_disjunction_2_diajunct_1  26
    x[2,29]   c_disjunction_2_disjunct_2  1
    x[30,30]  demand_30  1
    x[30,30]  c_disjunction_30_diajunct_1  8
    x[30,30]  c_disjunction_30_disjunct_2  1
    x[19,30]  OBJ       5.2
    x[19,30]  demand_30  1
    x[19,30]  c_disjunction_19_diajunct_1  8
    x[19,30]  c_disjunction_19_disjunct_2  1
    x[32,30]  OBJ       11.4
    x[32,30]  demand_30  1
    x[32,30]  c_disjunction_32_diajunct_1  8
    x[32,30]  c_disjunction_32_disjunct_2  1
    x[31,31]  demand_31  1
    x[31,31]  c_disjunction_31_diajunct_1  7
    x[31,31]  c_disjunction_31_disjunct_2  1
    x[33,31]  OBJ       3.2
    x[33,31]  demand_31  1
    x[33,31]  c_disjunction_33_diajunct_1  7
    x[33,31]  c_disjunction_33_disjunct_2  1
    x[16,31]  OBJ       9.1
    x[16,31]  demand_31  1
    x[16,31]  c_disjunction_16_diajunct_1  7
    x[16,31]  c_disjunction_16_disjunct_2  1
    x[32,32]  demand_32  1
    x[32,32]  c_disjunction_32_diajunct_1  5
    x[32,32]  c_disjunction_32_disjunct_2  1
    x[27,32]  OBJ       4.6
    x[27,32]  demand_32  1
    x[27,32]  c_disjunction_27_diajunct_1  5
    x[27,32]  c_disjunction_27_disjunct_2  1
    x[22,32]  OBJ       5.9
    x[22,32]  demand_32  1
    x[22,32]  c_disjunction_22_diajunct_1  5
    x[22,32]  c_disjunction_22_disjunct_2  1
    x[33,33]  demand_33  1
    x[33,33]  c_disjunction_33_diajunct_1  25
    x[33,33]  c_disjunction_33_disjunct_2  1
    x[31,33]  OBJ       11.3
    x[31,33]  demand_33  1
    x[31,33]  c_disjunction_31_diajunct_1  25
    x[31,33]  c_disjunction_31_disjunct_2  1
    x[16,33]  OBJ       21.3
    x[16,33]  demand_33  1
    x[16,33]  c_disjunction_16_diajunct_1  25
    x[16,33]  c_disjunction_16_disjunct_2  1
    x[34,34]  demand_34  1
    x[34,34]  c_disjunction_34_diajunct_1  6
    x[34,34]  c_disjunction_34_disjunct_2  1
    x[18,34]  OBJ       1.9
    x[18,34]  demand_34  1
    x[18,34]  c_disjunction_18_diajunct_1  6
    x[18,34]  c_disjunction_18_disjunct_2  1
    x[21,34]  OBJ       6.2
    x[21,34]  demand_34  1
    x[21,34]  c_disjunction_21_diajunct_1  6
    x[21,34]  c_disjunction_21_disjunct_2  1
    x[35,35]  demand_35  1
    x[35,35]  c_disjunction_35_diajunct_1  27
    x[35,35]  c_disjunction_35_disjunct_2  1
    x[28,35]  OBJ       15.9
    x[28,35]  demand_35  1
    x[28,35]  c_disjunction_28_diajunct_1  27
    x[28,35]  c_disjunction_28_disjunct_2  1
    x[12,35]  OBJ       25.9
    x[12,35]  demand_35  1
    x[12,35]  c_disjunction_12_diajunct_1  27
    x[12,35]  c_disjunction_12_disjunct_2  1
    MARKER    'MARKER'                 'INTEND'
RHS
    RHS1      demand_1  1
    RHS1      demand_2  1
    RHS1      demand_3  1
    RHS1      demand_4  1
    RHS1      demand_5  1
    RHS1      demand_6  1
    RHS1      demand_7  1
    RHS1      demand_8  1
    RHS1      demand_9  1
    RHS1      demand_10  1
    RHS1      demand_11  1
    RHS1      demand_12  1
    RHS1      demand_13  1
    RHS1      demand_14  1
    RHS1      demand_15  1
    RHS1      demand_16  1
    RHS1      demand_17  1
    RHS1      demand_18  1
    RHS1      demand_19  1
    RHS1      demand_20  1
    RHS1      demand_21  1
    RHS1      demand_22  1
    RHS1      demand_23  1
    RHS1      demand_24  1
    RHS1      demand_25  1
    RHS1      demand_26  1
    RHS1      demand_27  1
    RHS1      demand_28  1
    RHS1      demand_29  1
    RHS1      demand_30  1
    RHS1      demand_31  1
    RHS1      demand_32  1
    RHS1      demand_33  1
    RHS1      demand_34  1
    RHS1      demand_35  1
    RHS1      c_disjunction_1_disjunct_2  3
    RHS1      R37       1
    RHS1      c_disjunction_2_disjunct_2  3
    RHS1      R40       1
    RHS1      c_disjunction_3_disjunct_2  3
    RHS1      R43       1
    RHS1      c_disjunction_4_disjunct_2  3
    RHS1      R46       1
    RHS1      c_disjunction_5_disjunct_2  3
    RHS1      R49       1
    RHS1      c_disjunction_6_disjunct_2  3
    RHS1      R52       1
    RHS1      c_disjunction_7_disjunct_2  3
    RHS1      R55       1
    RHS1      c_disjunction_8_disjunct_2  4
    RHS1      R58       1
    RHS1      c_disjunction_9_disjunct_2  2
    RHS1      R61       1
    RHS1      c_disjunction_10_disjunct_2  2
    RHS1      R64       1
    RHS1      c_disjunction_11_disjunct_2  3
    RHS1      R67       1
    RHS1      c_disjunction_12_disjunct_2  3
    RHS1      R70       1
    RHS1      c_disjunction_13_disjunct_2  1
    RHS1      R73       1
    RHS1      c_disjunction_14_disjunct_2  2
    RHS1      R76       1
    RHS1      c_disjunction_15_disjunct_2  5
    RHS1      R79       1
    RHS1      c_disjunction_16_disjunct_2  4
    RHS1      R82       1
    RHS1      c_disjunction_17_disjunct_2  2
    RHS1      R85       1
    RHS1      c_disjunction_18_disjunct_2  2
    RHS1      R88       1
    RHS1      c_disjunction_19_disjunct_2  3
    RHS1      R91       1
    RHS1      c_disjunction_20_disjunct_2  2
    RHS1      R94       1
    RHS1      c_disjunction_21_disjunct_2  4
    RHS1      R97       1
    RHS1      c_disjunction_22_disjunct_2  4
    RHS1      R100      1
    RHS1      c_disjunction_23_disjunct_2  3
    RHS1      R103      1
    RHS1      c_disjunction_24_disjunct_2  4
    RHS1      R106      1
    RHS1      c_disjunction_25_disjunct_2  2
    RHS1      R109      1
    RHS1      c_disjunction_26_disjunct_2  3
    RHS1      R112      1
    RHS1      c_disjunction_27_disjunct_2  3
    RHS1      R115      1
    RHS1      c_disjunction_28_disjunct_2  3
    RHS1      R118      1
    RHS1      c_disjunction_29_disjunct_2  3
    RHS1      R121      1
    RHS1      c_disjunction_30_disjunct_2  2
    RHS1      R124      1
    RHS1      c_disjunction_31_disjunct_2  3
    RHS1      R127      1
    RHS1      c_disjunction_32_disjunct_2  5
    RHS1      R130      1
    RHS1      c_disjunction_33_disjunct_2  4
    RHS1      R133      1
    RHS1      c_disjunction_34_disjunct_2  3
    RHS1      R136      1
    RHS1      c_disjunction_35_disjunct_2  3
    RHS1      R139      1
BOUNDS
 BV BND1      ind_disjunction_1_disjunct_1
 BV BND1      ind_disjunction_2_disjunct_1
 BV BND1      ind_disjunction_3_disjunct_1
 BV BND1      ind_disjunction_4_disjunct_1
 BV BND1      ind_disjunction_5_disjunct_1
 BV BND1      ind_disjunction_6_disjunct_1
 BV BND1      ind_disjunction_7_disjunct_1
 BV BND1      ind_disjunction_8_disjunct_1
 BV BND1      ind_disjunction_9_disjunct_1
 BV BND1      ind_disjunction_10_disjunct_1
 BV BND1      ind_disjunction_11_disjunct_1
 BV BND1      ind_disjunction_12_disjunct_1
 BV BND1      ind_disjunction_13_disjunct_1
 BV BND1      ind_disjunction_14_disjunct_1
 BV BND1      ind_disjunction_15_disjunct_1
 BV BND1      ind_disjunction_16_disjunct_1
 BV BND1      ind_disjunction_17_disjunct_1
 BV BND1      ind_disjunction_18_disjunct_1
 BV BND1      ind_disjunction_19_disjunct_1
 BV BND1      ind_disjunction_20_disjunct_1
 BV BND1      ind_disjunction_21_disjunct_1
 BV BND1      ind_disjunction_22_disjunct_1
 BV BND1      ind_disjunction_23_disjunct_1
 BV BND1      ind_disjunction_24_disjunct_1
 BV BND1      ind_disjunction_25_disjunct_1
 BV BND1      ind_disjunction_26_disjunct_1
 BV BND1      ind_disjunction_27_disjunct_1
 BV BND1      ind_disjunction_28_disjunct_1
 BV BND1      ind_disjunction_29_disjunct_1
 BV BND1      ind_disjunction_30_disjunct_1
 BV BND1      ind_disjunction_31_disjunct_1
 BV BND1      ind_disjunction_32_disjunct_1
 BV BND1      ind_disjunction_33_disjunct_1
 BV BND1      ind_disjunction_34_disjunct_1
 BV BND1      ind_disjunction_35_disjunct_1
 BV BND1      ind_disjunction_1_disjunct_2
 BV BND1      ind_disjunction_2_disjunct_2
 BV BND1      ind_disjunction_3_disjunct_2
 BV BND1      ind_disjunction_4_disjunct_2
 BV BND1      ind_disjunction_5_disjunct_2
 BV BND1      ind_disjunction_6_disjunct_2
 BV BND1      ind_disjunction_7_disjunct_2
 BV BND1      ind_disjunction_8_disjunct_2
 BV BND1      ind_disjunction_9_disjunct_2
 BV BND1      ind_disjunction_10_disjunct_2
 BV BND1      ind_disjunction_11_disjunct_2
 BV BND1      ind_disjunction_12_disjunct_2
 BV BND1      ind_disjunction_13_disjunct_2
 BV BND1      ind_disjunction_14_disjunct_2
 BV BND1      ind_disjunction_15_disjunct_2
 BV BND1      ind_disjunction_16_disjunct_2
 BV BND1      ind_disjunction_17_disjunct_2
 BV BND1      ind_disjunction_18_disjunct_2
 BV BND1      ind_disjunction_19_disjunct_2
 BV BND1      ind_disjunction_20_disjunct_2
 BV BND1      ind_disjunction_21_disjunct_2
 BV BND1      ind_disjunction_22_disjunct_2
 BV BND1      ind_disjunction_23_disjunct_2
 BV BND1      ind_disjunction_24_disjunct_2
 BV BND1      ind_disjunction_25_disjunct_2
 BV BND1      ind_disjunction_26_disjunct_2
 BV BND1      ind_disjunction_27_disjunct_2
 BV BND1      ind_disjunction_28_disjunct_2
 BV BND1      ind_disjunction_29_disjunct_2
 BV BND1      ind_disjunction_30_disjunct_2
 BV BND1      ind_disjunction_31_disjunct_2
 BV BND1      ind_disjunction_32_disjunct_2
 BV BND1      ind_disjunction_33_disjunct_2
 BV BND1      ind_disjunction_34_disjunct_2
 BV BND1      ind_disjunction_35_disjunct_2
 BV BND1      x[1,1]  
 BV BND1      x[17,1] 
 BV BND1      x[22,1] 
 BV BND1      x[2,2]  
 BV BND1      x[23,2] 
 BV BND1      x[29,2] 
 BV BND1      x[3,3]  
 BV BND1      x[24,3] 
 BV BND1      x[6,3]  
 BV BND1      x[4,4]  
 BV BND1      x[5,4]  
 BV BND1      x[27,4] 
 BV BND1      x[5,5]  
 BV BND1      x[4,5]  
 BV BND1      x[1,5]  
 BV BND1      x[6,6]  
 BV BND1      x[3,6]  
 BV BND1      x[15,6] 
 BV BND1      x[7,7]  
 BV BND1      x[26,7] 
 BV BND1      x[15,7] 
 BV BND1      x[8,8]  
 BV BND1      x[24,8] 
 BV BND1      x[21,8] 
 BV BND1      x[9,9]  
 BV BND1      x[20,9] 
 BV BND1      x[14,9] 
 BV BND1      x[10,10]
 BV BND1      x[11,10]
 BV BND1      x[6,10] 
 BV BND1      x[11,11]
 BV BND1      x[10,11]
 BV BND1      x[22,11]
 BV BND1      x[12,12]
 BV BND1      x[28,12]
 BV BND1      x[35,12]
 BV BND1      x[13,13]
 BV BND1      x[15,13]
 BV BND1      x[31,13]
 BV BND1      x[14,14]
 BV BND1      x[24,14]
 BV BND1      x[8,14] 
 BV BND1      x[15,15]
 BV BND1      x[26,15]
 BV BND1      x[7,15] 
 BV BND1      x[16,16]
 BV BND1      x[33,16]
 BV BND1      x[25,16]
 BV BND1      x[17,17]
 BV BND1      x[1,17] 
 BV BND1      x[5,17] 
 BV BND1      x[18,18]
 BV BND1      x[34,18]
 BV BND1      x[21,18]
 BV BND1      x[19,19]
 BV BND1      x[30,19]
 BV BND1      x[32,19]
 BV BND1      x[20,20]
 BV BND1      x[9,20] 
 BV BND1      x[19,20]
 BV BND1      x[21,21]
 BV BND1      x[34,21]
 BV BND1      x[8,21] 
 BV BND1      x[22,22]
 BV BND1      x[32,22]
 BV BND1      x[11,22]
 BV BND1      x[23,23]
 BV BND1      x[2,23] 
 BV BND1      x[29,23]
 BV BND1      x[24,24]
 BV BND1      x[8,24] 
 BV BND1      x[3,24] 
 BV BND1      x[25,25]
 BV BND1      x[16,25]
 BV BND1      x[33,25]
 BV BND1      x[26,26]
 BV BND1      x[15,26]
 BV BND1      x[7,26] 
 BV BND1      x[27,27]
 BV BND1      x[32,27]
 BV BND1      x[4,27] 
 BV BND1      x[28,28]
 BV BND1      x[12,28]
 BV BND1      x[35,28]
 BV BND1      x[29,29]
 BV BND1      x[23,29]
 BV BND1      x[2,29] 
 BV BND1      x[30,30]
 BV BND1      x[19,30]
 BV BND1      x[32,30]
 BV BND1      x[31,31]
 BV BND1      x[33,31]
 BV BND1      x[16,31]
 BV BND1      x[32,32]
 BV BND1      x[27,32]
 BV BND1      x[22,32]
 BV BND1      x[33,33]
 BV BND1      x[31,33]
 BV BND1      x[16,33]
 BV BND1      x[34,34]
 BV BND1      x[18,34]
 BV BND1      x[21,34]
 BV BND1      x[35,35]
 BV BND1      x[28,35]
 BV BND1      x[12,35]
ENDATA
